(set-logic QF_UF)
(declare-fun A0 () Bool)
(declare-fun A1 () Bool)
(declare-fun A2 () Bool)
(declare-fun A3 () Bool)
(declare-fun A4 () Bool)
(declare-fun A5 () Bool)
(declare-fun A6 () Bool)
(declare-fun A7 () Bool)
(declare-fun A8 () Bool)
(declare-fun A9 () Bool)
(declare-fun A10 () Bool)
(declare-fun A11 () Bool)
(declare-fun A12 () Bool)
(declare-fun A13 () Bool)
(declare-fun A14 () Bool)
(declare-fun A15 () Bool)
(declare-fun A16 () Bool)
(declare-fun A17 () Bool)
(declare-fun A18 () Bool)
(declare-fun A19 () Bool)
(declare-fun A20 () Bool)
(declare-fun A21 () Bool)
(declare-fun A23 () Bool)
(declare-fun A24 () Bool)
(assert (let ((.def_0 (not A5))) (let ((.def_1 (not A6))) (let ((.def_2 (or .def_1 .def_0))) (let ((.def_3 (not .def_2))) (let ((.def_4 (not A4))) (let ((.def_5 (not A24))) (let ((.def_6 (or .def_5 .def_4))) (let ((.def_7 (not .def_6))) (let ((.def_8 (or .def_7 .def_3))) (let ((.def_9 (not .def_8))) (let ((.def_10 (not A9))) (let ((.def_11 (and A12 .def_10))) (let ((.def_12 (not .def_11))) (let ((.def_13 (not A0))) (let ((.def_14 (and .def_13 A4))) (let ((.def_15 (not .def_14))) (let ((.def_16 (or .def_15 .def_12))) (let ((.def_17 (and .def_16 .def_9))) (let ((.def_18 (not .def_17))) (let ((.def_19 (not A16))) (let ((.def_20 (and .def_19 A9))) (let ((.def_21 (not .def_20))) (let ((.def_22 (not A1))) (let ((.def_23 (= A11 .def_22))) (let ((.def_24 (or .def_23 .def_21))) (let ((.def_25 (= .def_13 A9))) (let ((.def_26 (not A13))) (let ((.def_27 (not A18))) (let ((.def_28 (or .def_27 .def_26))) (let ((.def_29 (not .def_28))) (let ((.def_30 (or .def_29 .def_25))) (let ((.def_31 (not .def_30))) (let ((.def_32 (or .def_31 .def_24))) (let ((.def_33 (or .def_32 .def_18))) (let ((.def_34 (not .def_33))) (let ((.def_35 (and .def_5 A18))) (let ((.def_36 (and A17 .def_19))) (let ((.def_37 (not .def_36))) (let ((.def_38 (and .def_37 .def_35))) (let ((.def_39 (and A15 A3))) (let ((.def_40 (and A20 A21))) (let ((.def_41 (not .def_40))) (let ((.def_42 (or .def_41 .def_39))) (let ((.def_43 (and .def_42 .def_38))) (let ((.def_44 (not .def_43))) (let ((.def_45 (= A9 .def_26))) (let ((.def_46 (not .def_45))) (let ((.def_47 (not A10))) (let ((.def_48 (or .def_47 .def_5))) (let ((.def_49 (or .def_48 .def_46))) (let ((.def_50 (not A3))) (let ((.def_51 (and A8 .def_50))) (let ((.def_52 (not A21))) (let ((.def_53 (or .def_52 A4))) (let ((.def_54 (and .def_53 .def_51))) (let ((.def_55 (not .def_54))) (let ((.def_56 (or .def_55 .def_49))) (let ((.def_57 (or .def_56 .def_44))) (let ((.def_58 (and .def_57 .def_34))) (let ((.def_59 (not A17))) (let ((.def_60 (or A5 .def_59))) (let ((.def_61 (not .def_60))) (let ((.def_62 (not A20))) (let ((.def_63 (not A7))) (let ((.def_64 (or .def_63 .def_62))) (let ((.def_65 (and .def_64 .def_61))) (let ((.def_66 (not .def_65))) (let ((.def_67 (not A23))) (let ((.def_68 (and .def_67 .def_27))) (let ((.def_69 (or A14 A3))) (let ((.def_70 (and .def_69 .def_68))) (let ((.def_71 (not .def_70))) (let ((.def_72 (and .def_71 .def_66))) (let ((.def_73 (not .def_72))) (let ((.def_74 (and .def_26 A21))) (let ((.def_75 (and .def_50 .def_10))) (let ((.def_76 (or .def_75 .def_74))) (let ((.def_77 (not .def_76))) (let ((.def_78 (or .def_13 A15))) (let ((.def_79 (and A15 A18))) (let ((.def_80 (not .def_79))) (let ((.def_81 (or .def_80 .def_78))) (let ((.def_82 (and .def_81 .def_77))) (let ((.def_83 (or .def_82 .def_73))) (let ((.def_84 (not .def_83))) (let ((.def_85 (and .def_63 A13))) (let ((.def_86 (not .def_85))) (let ((.def_87 (and A2 A16))) (let ((.def_88 (not .def_87))) (let ((.def_89 (= .def_88 .def_86))) (let ((.def_90 (not A8))) (let ((.def_91 (or .def_90 A16))) (let ((.def_92 (not .def_91))) (let ((.def_93 (and .def_52 A4))) (let ((.def_94 (not .def_93))) (let ((.def_95 (and .def_94 .def_92))) (let ((.def_96 (not .def_95))) (let ((.def_97 (and .def_96 .def_89))) (let ((.def_98 (or .def_90 A15))) (let ((.def_99 (not .def_98))) (let ((.def_100 (not A19))) (let ((.def_101 (or .def_100 A9))) (let ((.def_102 (or .def_101 .def_99))) (let ((.def_103 (not .def_102))) (let ((.def_104 (or A9 .def_67))) (let ((.def_105 (not .def_104))) (let ((.def_106 (not A12))) (let ((.def_107 (or .def_106 .def_13))) (let ((.def_108 (not .def_107))) (let ((.def_109 (and .def_108 .def_105))) (let ((.def_110 (not .def_109))) (let ((.def_111 (and .def_110 .def_103))) (let ((.def_112 (or .def_111 .def_97))) (let ((.def_113 (and .def_112 .def_84))) (let ((.def_114 (and .def_113 .def_58))) .def_114))))))))))))))))))))))))))))))))))))))))))))))))))))))))))))))))))))))))))))))))))))))))))))))))))))))))))))))))))))
(check-sat)
